NAME : pr1002
COMMENT : 1002-city problem (Padberg/Rinaldi)
TYPE : TSP
DIMENSION : 20
EDGE_WEIGHT_TYPE : EUC_2D
NODE_COORD_SECTION
1 1150 4000
2 1050 2750
3 1150 2250
4 1250 2050
5 1350 2350
6 1050 1550
7 3350 1700
8 3450 1450
9 3550 1600
10 3950 1700
11 4050 2000
12 4050 2150
13 4250 1650
14 4150 1500
15 4450 1450
16 4400 1700
17 4600 1850
18 4900 1550
19 5100 1550
20 5350 1450
